
Gurobi 10.0.3 (linux64, gurobi_cl) logging started Thu Nov  9 12:18:31 2023

Set parameter Username
Set parameter TimeLimit to value 3600
Set parameter LogFile to value "RCPSP_1364.log"
Set parameter Threads to value 32
Academic license - for non-commercial use only - expires 2024-11-06
Using license file /home/jrivera6/gurobi-licenses/v1003/compute-0-36/gurobi.lic

Gurobi Optimizer version 10.0.3 build v10.0.3rc0 (linux64)
Copyright (c) 2023, Gurobi Optimization, LLC

Read MPS format model from file RCPSP_1364.mps
Reading time = 0.08 seconds
RCPSP_1364: 42975 rows, 17020 columns, 151080 nonzeros

CPU model: Intel(R) Xeon(R) Gold 6130 CPU @ 2.10GHz, instruction set [SSE2|AVX|AVX2|AVX512]
Thread count: 32 physical cores, 32 logical processors, using up to 32 threads

Optimize a model with 42975 rows, 17020 columns and 151080 nonzeros
Model fingerprint: 0x9743a084
Variable types: 92 continuous, 16928 integer (16928 binary)
Coefficient statistics:
  Matrix range     [1e+00, 5e+02]
  Objective range  [1e+00, 1e+00]
  Bounds range     [1e+00, 1e+00]
  RHS range        [1e+00, 5e+02]
Presolve removed 8404 rows and 1793 columns (presolve time = 5s) ...
Presolve removed 13435 rows and 3793 columns
Presolve time: 8.58s
Presolved: 29540 rows, 13227 columns, 107764 nonzeros
Variable types: 91 continuous, 13136 integer (13136 binary)
Deterministic concurrent LP optimizer: primal and dual simplex
Showing first log only...


Root simplex log...

Iteration    Objective       Primal Inf.    Dual Inf.      Time
       0    8.5061183e+01   5.657825e-03   2.092715e+08      9s
Concurrent spin time: 0.02s

Solved with dual simplex

Root simplex log...

Iteration    Objective       Primal Inf.    Dual Inf.      Time
    3986    8.5000000e+01   0.000000e+00   0.000000e+00      9s

Root relaxation: objective 8.500000e+01, 3986 iterations, 0.43 seconds (0.11 work units)
Total elapsed time = 10.20s

    Nodes    |    Current Node    |     Objective Bounds      |     Work
 Expl Unexpl |  Obj  Depth IntInf | Incumbent    BestBd   Gap | It/Node Time

     0     0   85.00000    0  402          -   85.00000      -     -   13s
     0     0   91.00000    0  407          -   91.00000      -     -   14s
     0     0   91.00000    0  882          -   91.00000      -     -   31s
     0     0   91.00000    0  821          -   91.00000      -     -   33s
     0     0   91.00000    0  710          -   91.00000      -     -   34s
     0     0   91.00000    0  698          -   91.00000      -     -   35s
     0     0   91.00000    0  684          -   91.00000      -     -   35s
     0     0   91.00000    0  683          -   91.00000      -     -   38s
     0     0   91.00000    0  677          -   91.00000      -     -   38s
     0     0   94.54321    0  337          -   94.54321      -     -   53s
     0     0   94.54321    0  492          -   94.54321      -     -   58s
     0     0   94.54321    0  751          -   94.54321      -     -   64s
     0     0   94.54321    0  785          -   94.54321      -     -   65s
H    0     0                     473.0000000   94.54321  80.0%     -   66s
     0     0   94.54321    0  847  473.00000   94.54321  80.0%     -   66s
     0     0   94.54321    0  285  473.00000   94.54321  80.0%     -  109s
H    0     0                     471.0000000   94.54321  79.9%     -  117s
     0     0   94.54321    0  686  471.00000   94.54321  79.9%     -  122s
     0     0   94.54321    0  679  471.00000   94.54321  79.9%     -  122s
H    0     0                     381.0000000   94.54321  75.2%     -  135s
     0     0   94.54321    0  750  381.00000   94.54321  75.2%     -  137s
     0     0   94.54321    0  741  381.00000   94.54321  75.2%     -  137s
     0     0   96.17848    0  336  381.00000   96.17848  74.8%     -  158s
H    0     0                     334.0000000   96.17848  71.2%     -  161s
     0     0   96.17848    0  613  334.00000   96.17848  71.2%     -  164s
     0     0   96.17848    0  677  334.00000   96.17848  71.2%     -  168s
     0     0   96.17848    0  652  334.00000   96.17848  71.2%     -  168s
     0     0   96.17848    0  669  334.00000   96.17848  71.2%     -  169s
     0     0   96.17848    0  620  334.00000   96.17848  71.2%     -  169s
     0     0   96.17848    0  616  334.00000   96.17848  71.2%     -  169s
     0     0   96.17848    0  387  334.00000   96.17848  71.2%     -  193s
     0     0   96.17848    0  624  334.00000   96.17848  71.2%     -  203s
     0     0   96.17848    0  623  334.00000   96.17848  71.2%     -  203s
     0     0   96.17848    0  616  334.00000   96.17848  71.2%     -  215s
     0     0   96.17848    0  571  334.00000   96.17848  71.2%     -  215s
H    0     0                     317.0000000   96.17848  69.7%     -  216s
     0     0   96.17848    0  815  317.00000   96.17848  69.7%     -  216s
     0     0   96.17848    0  769  317.00000   96.17848  69.7%     -  216s
H    0     0                     305.0000000   96.17848  68.5%     -  218s
H    0     0                     266.0000000   96.17848  63.8%     -  238s
     0     0   96.17848    0  601  266.00000   96.17848  63.8%     -  240s
     0     0   96.17848    0  599  266.00000   96.17848  63.8%     -  240s
H    0     0                     256.0000000   96.17848  62.4%     -  242s
     0     0   96.17848    0  844  256.00000   96.17848  62.4%     -  244s
     0     0   96.17848    0  846  256.00000   96.17848  62.4%     -  245s
     0     0   96.17848    0  814  256.00000   96.17848  62.4%     -  245s
     0     0   96.17848    0  516  256.00000   96.17848  62.4%     -  261s
     0     0   96.17848    0  516  256.00000   96.17848  62.4%     -  261s
     0     0   96.17848    0  375  256.00000   96.17848  62.4%     -  278s
H    0     0                     252.0000000   96.17848  61.8%     -  283s
     0     2   96.17848    0  340  252.00000   96.17848  61.8%     -  313s
     1     4   96.17848    1  378  252.00000   96.17848  61.8%  6565  319s
     3     7   96.17848    2  720  252.00000   96.17848  61.8%  2948  335s
     7    12   96.17848    3  874  252.00000   96.17848  61.8%  2135  364s
    14    22   96.17848    4  909  252.00000   96.17848  61.8%  1819  538s
    26    42   96.17848    5  918  252.00000   96.17848  61.8%  1605  676s
    48    68   96.17848    6  741  252.00000   96.17848  61.8%  1445 1123s
H   60    68                     252.0000000   96.17848  61.8%  1340 1123s
H   80    93                     224.0000000   96.17848  57.1%  1275 1449s
H   85    93                     215.0000000   96.17848  55.3%  1262 1449s
H   95    93                     214.0000000   96.17848  55.1%  1206 1449s
   112   121   96.17848    8  706  214.00000   96.17848  55.1%  1139 1455s
   144   150   96.17848    9  668  214.00000   96.17848  55.1%   905 1461s
   176   202   96.17848   10  645  214.00000   96.17848  55.1%   766 1500s
   232   253   96.17848   11  715  214.00000   96.17848  55.1%   638 1508s
   286   302   96.17848   12  710  214.00000   96.17848  55.1%   545 1517s
   337   361   96.17848   12  748  214.00000   96.17848  55.1%   499 1526s
   401   424   96.17848   13  730  214.00000   96.17848  55.1%   445 1534s
   468   493   96.17848   14  760  214.00000   96.17848  55.1%   399 1542s
   537   570   96.17848   15  739  214.00000   96.17848  55.1%   359 1559s
   617   651   96.17848   16  765  214.00000   96.17848  55.1%   323 1567s
   703   730   96.17848   17  735  214.00000   96.17848  55.1%   296 1575s
   784   818   96.17848   18  756  214.00000   96.17848  55.1%   276 1583s
   875   925   97.00000   19  873  214.00000   96.17848  55.1%   257 1593s
   983  1042   97.00000   20  858  214.00000   96.17848  55.1%   236 1600s
  1110  1082   97.00000   21  858  214.00000   96.17848  55.1%   213 1612s
H 1129  1082                     213.0000000   96.17848  54.8%   210 1612s
  1158  1197   97.00000   23  858  213.00000   96.17848  54.8%   207 1620s
  1284  1313   97.00000   26  837  213.00000   96.17848  54.8%   192 1627s
  1423  1487   99.00000   28  748  213.00000   96.17848  54.8%   178 1634s
  1613  1717   99.00000   31  738  213.00000   96.17848  54.8%   161 1642s
  1859  1954  100.00000   32  798  213.00000   96.17848  54.8%   146 1658s
  2133  2070 infeasible   33       213.00000   96.17848  54.8%   132 1671s
H 2262  2070                     212.0000000   96.17848  54.6%   130 1671s
  2291  2210  106.00000   34  828  212.00000   96.17848  54.6%   130 1724s
  2473  2343  106.00000   35  841  212.00000   96.17848  54.6%   129 1761s
  2659  2505  106.00000   36  905  212.00000   96.17848  54.6%   131 1772s
  2858  2780  106.00000   37  897  212.00000   96.17848  54.6%   127 1786s
  3154  3019  106.00000   39  829  212.00000   96.17848  54.6%   120 1796s
H 3447  3298                     211.0000000   96.17848  54.4%   115 1807s
H 3471  3298                     210.0000000   96.17848  54.2%   115 1807s
H 3637  3298                     208.0000000   96.17848  53.8%   111 1808s
  3774  3618  106.00000   43  836  208.00000   96.17848  53.8%   109 1818s
  4175  3938  107.00000   44  781  208.00000   96.17848  53.8%   102 1839s
  4571  4165  107.00000   45  920  208.00000   96.17848  53.8%  98.7 1860s
  4834  4410  107.00000   46  869  208.00000   96.17848  53.8%  98.9 1876s
  5110  4715  110.00000   47  817  208.00000   96.17848  53.8%  97.6 1913s
  5495  4995 infeasible   46       208.00000   96.17848  53.8%  95.4 2002s
  5848  5356   98.00000    8  934  208.00000   96.17848  53.8%  95.2 2059s
  6256  5736   98.00000   10  846  208.00000   96.17848  53.8%  95.4 2157s
  6692  6246   98.00000   14  873  208.00000   96.17848  53.8%  96.5 2189s
  7251  6702   98.00000   17  895  208.00000   96.17848  53.8%  92.9 2212s
  7848  6730  106.00000   24  707  208.00000   96.17848  53.8%  90.4 2318s
H 7853  6730                     204.0000000   96.17848  52.9%  90.6 2319s
  7883  6731  137.00000  110  847  204.00000   96.17848  52.9%  92.7 2418s
  7885  6732  116.00000   81  217  204.00000   96.17848  52.9%  92.7 2441s
  7886  6733  117.00000   97  564  204.00000   96.17848  52.9%  92.7 2459s
H 7886  6396                     202.0000000   96.17848  52.4%  92.7 2468s
H 7887  6077                     199.0000000   96.17848  51.7%  92.7 2482s
H 7887  5773                     197.0000000   96.17848  51.2%  92.7 2490s
  7890  5775  113.00000  161  493  197.00000   96.17848  51.2%  92.7 2555s
H 7890  5486                     195.0000000   96.17848  50.7%  92.7 2571s
  7891  5486  120.00000   81  694  195.00000   96.17848  50.7%  92.6 2579s
H 7891  5212                     193.0000000   96.17848  50.2%  92.6 2611s
H 7891  4951                     186.0000000   96.17848  48.3%  92.6 2611s
H 7891  4703                     185.0000000   96.17848  48.0%  92.6 2611s
H 7891  4468                     183.0000000   96.17848  47.4%  92.6 2611s
  7892  4469  151.00000   78  490  183.00000   96.17848  47.4%  92.6 2618s
H 7892  4245                     181.0000000   96.17848  46.9%  92.6 2627s
H 7893  4034                     180.0000000   96.17848  46.6%  92.6 2661s
  7894  4034  130.00000  110  547  180.00000   96.17848  46.6%  92.6 2673s
H 7894  3832                     179.0000000   96.17848  46.3%  92.6 2688s
  7895  3833  131.00000   75  840  179.00000   96.17848  46.3%  92.6 2697s
H 7895  3641                     178.0000000   96.17848  46.0%  92.6 2750s
  7897  3642  152.00000  272  942  178.00000   96.17848  46.0%  92.6 2774s
H 7897  3460                     176.0000000   96.17848  45.4%  92.6 2825s
  7898  3461  136.00000  172  704  176.00000   96.17848  45.4%  92.6 2832s
  7899  3462  126.00000  177 1032  176.00000   96.17848  45.4%  92.5 2857s
  7900  3462  149.00000  110  575  176.00000   96.17848  45.4%  92.5 2887s
  7901  3463  117.00000  179  841  176.00000   96.19379  45.3%  92.5 2903s
  7902  3464  166.00000  152  685  176.00000   96.25082  45.3%  92.5 2926s
  7903  3464  132.00000   72  891  176.00000   96.25082  45.3%  92.5 2937s
  7904  3465  127.00000   65  968  176.00000   96.25082  45.3%  92.5 2952s
  7905  3466  117.00000   99 1030  176.00000   96.25757  45.3%  92.5 2975s
  7906  3466  110.00000   93  500  176.00000   96.25757  45.3%  92.5 3013s
  7907  3467  151.00000  215  798  176.00000   96.25757  45.3%  92.5 3026s
  7908  3468  117.98262   32  915  176.00000   96.25757  45.3%  92.4 3040s
  7909  3468  109.00000   51 1010  176.00000   96.25757  45.3%  92.4 3055s
H 7909  3294                     175.0000000   96.25757  45.0%  92.4 3084s
H 7909  3129                     174.0000000   96.25757  44.7%  92.4 3084s
  7910  3130  144.00000  121  490  174.00000   96.25757  44.7%  92.4 3093s
  7911  3131  134.00000   93  729  174.00000   96.25757  44.7%  92.4 3106s
  7912  3131  119.00000   36  484  174.00000   96.25757  44.7%  92.4 3133s
  7913  3132  116.00000   33  665  174.00000   96.25757  44.7%  92.4 3149s
H 7913  2974                     174.0000000   96.25757  44.7%  92.4 3170s
  7915  2975  160.00000   77  809  174.00000   96.25757  44.7%  92.4 3183s
  7916  2976  138.00000  128  696  174.00000   96.45232  44.6%  92.3 3255s
  7917  2977  104.00000   25  928  174.00000   96.45232  44.6%  92.3 3263s
  7918  2977  161.00000  296  965  174.00000   96.45232  44.6%  92.3 3277s
  7919  2978  115.00000   14 1072  174.00000   96.45232  44.6%  92.3 3284s
H 7919  2829                     174.0000000   96.45232  44.6%  92.3 3303s
H 7919  2687                     173.0000000   96.45232  44.2%  92.3 3303s
  7920  2688  147.00000  104  647  173.00000   96.45232  44.2%  92.3 3312s
  7921  2688  144.00000  141  930  173.00000   96.45232  44.2%  92.3 3323s
H 7921  2553                     172.0000000   96.45232  43.9%  92.3 3343s
H 7921  2424                     171.0000000   96.45232  43.6%  92.3 3387s
  7923  2426  127.00000  105  820  171.00000   96.45232  43.6%  92.3 3400s

Gurobi 10.0.3 (linux64, gurobi_cl) logging started Fri Nov 10 17:20:18 2023

Set parameter Username
Set parameter TimeLimit to value 3600
Set parameter LogFile to value "RCPSP_1364.log"
Set parameter Threads to value 32
Academic license - for non-commercial use only - expires 2024-10-30
Using license file /home/jrivera6/gurobi-licenses/v1003/compute-0-34/gurobi.lic

Gurobi Optimizer version 10.0.3 build v10.0.3rc0 (linux64)
Copyright (c) 2023, Gurobi Optimization, LLC

Read MPS format model from file RCPSP_1364.mps
Reading time = 0.10 seconds
RCPSP_1364: 42975 rows, 17020 columns, 151080 nonzeros

CPU model: Intel(R) Xeon(R) Gold 6130 CPU @ 2.10GHz, instruction set [SSE2|AVX|AVX2|AVX512]
Thread count: 32 physical cores, 32 logical processors, using up to 32 threads

Optimize a model with 42975 rows, 17020 columns and 151080 nonzeros
Model fingerprint: 0x9743a084
Variable types: 92 continuous, 16928 integer (16928 binary)
Coefficient statistics:
  Matrix range     [1e+00, 5e+02]
  Objective range  [1e+00, 1e+00]
  Bounds range     [1e+00, 1e+00]
  RHS range        [1e+00, 5e+02]
Presolve removed 8404 rows and 1793 columns (presolve time = 5s) ...
Presolve removed 13435 rows and 3793 columns
Presolve time: 7.22s
Presolved: 29540 rows, 13227 columns, 107764 nonzeros
Variable types: 91 continuous, 13136 integer (13136 binary)
Deterministic concurrent LP optimizer: primal and dual simplex
Showing first log only...


Root simplex log...

Iteration    Objective       Primal Inf.    Dual Inf.      Time
       0    8.5061183e+01   5.657825e-03   2.092715e+08      8s
    1724    8.5000000e+01   0.000000e+00   0.000000e+00      8s
Concurrent spin time: 0.01s

Solved with dual simplex

Root simplex log...

Iteration    Objective       Primal Inf.    Dual Inf.      Time
    3986    8.5000000e+01   0.000000e+00   0.000000e+00      8s

Root relaxation: objective 8.500000e+01, 3986 iterations, 0.38 seconds (0.11 work units)
Total elapsed time = 10.01s

    Nodes    |    Current Node    |     Objective Bounds      |     Work
 Expl Unexpl |  Obj  Depth IntInf | Incumbent    BestBd   Gap | It/Node Time

     0     0   85.00000    0  402          -   85.00000      -     -   11s
     0     0   91.00000    0  407          -   91.00000      -     -   11s
     0     0   91.00000    0  882          -   91.00000      -     -   27s
     0     0   91.00000    0  821          -   91.00000      -     -   29s
     0     0   91.00000    0  710          -   91.00000      -     -   30s
     0     0   91.00000    0  698          -   91.00000      -     -   30s
     0     0   91.00000    0  684          -   91.00000      -     -   30s
     0     0   91.00000    0  683          -   91.00000      -     -   33s
     0     0   91.00000    0  677          -   91.00000      -     -   33s
     0     0   94.54321    0  337          -   94.54321      -     -   48s
     0     0   94.54321    0  492          -   94.54321      -     -   54s
     0     0   94.54321    0  751          -   94.54321      -     -   60s
     0     0   94.54321    0  785          -   94.54321      -     -   60s
H    0     0                     473.0000000   94.54321  80.0%     -   62s
     0     0   94.54321    0  847  473.00000   94.54321  80.0%     -   62s
     0     0   94.54321    0  285  473.00000   94.54321  80.0%     -   99s
H    0     0                     471.0000000   94.54321  79.9%     -  108s
     0     0   94.54321    0  686  471.00000   94.54321  79.9%     -  113s
     0     0   94.54321    0  679  471.00000   94.54321  79.9%     -  113s
H    0     0                     381.0000000   94.54321  75.2%     -  120s
     0     0   94.54321    0  750  381.00000   94.54321  75.2%     -  121s
     0     0   94.54321    0  741  381.00000   94.54321  75.2%     -  121s
     0     0   96.17848    0  336  381.00000   96.17848  74.8%     -  137s
H    0     0                     334.0000000   96.17848  71.2%     -  139s
     0     0   96.17848    0  613  334.00000   96.17848  71.2%     -  143s
     0     0   96.17848    0  677  334.00000   96.17848  71.2%     -  147s
     0     0   96.17848    0  652  334.00000   96.17848  71.2%     -  147s
     0     0   96.17848    0  669  334.00000   96.17848  71.2%     -  148s
     0     0   96.17848    0  620  334.00000   96.17848  71.2%     -  148s
     0     0   96.17848    0  616  334.00000   96.17848  71.2%     -  148s
     0     0   96.17848    0  387  334.00000   96.17848  71.2%     -  161s
     0     0   96.17848    0  624  334.00000   96.17848  71.2%     -  171s
     0     0   96.17848    0  623  334.00000   96.17848  71.2%     -  171s
     0     0   96.17848    0  616  334.00000   96.17848  71.2%     -  183s
     0     0   96.17848    0  571  334.00000   96.17848  71.2%     -  183s
H    0     0                     317.0000000   96.17848  69.7%     -  184s
     0     0   96.17848    0  815  317.00000   96.17848  69.7%     -  184s
     0     0   96.17848    0  769  317.00000   96.17848  69.7%     -  185s
H    0     0                     305.0000000   96.17848  68.5%     -  186s
H    0     0                     266.0000000   96.17848  63.8%     -  195s
     0     0   96.17848    0  601  266.00000   96.17848  63.8%     -  197s
     0     0   96.17848    0  599  266.00000   96.17848  63.8%     -  197s
H    0     0                     256.0000000   96.17848  62.4%     -  198s
     0     0   96.17848    0  844  256.00000   96.17848  62.4%     -  201s
     0     0   96.17848    0  846  256.00000   96.17848  62.4%     -  202s
     0     0   96.17848    0  814  256.00000   96.17848  62.4%     -  202s
     0     0   96.17848    0  516  256.00000   96.17848  62.4%     -  224s
     0     0   96.17848    0  516  256.00000   96.17848  62.4%     -  225s
     0     0   96.17848    0  375  256.00000   96.17848  62.4%     -  244s
H    0     0                     252.0000000   96.17848  61.8%     -  250s
     0     2   96.17848    0  340  252.00000   96.17848  61.8%     -  282s
     1     4   96.17848    1  378  252.00000   96.17848  61.8%  6565  287s
     3     7   96.17848    2  720  252.00000   96.17848  61.8%  2948  303s
     7    12   96.17848    3  874  252.00000   96.17848  61.8%  2135  322s
    14    22   96.17848    4  909  252.00000   96.17848  61.8%  1819  340s
    26    42   96.17848    5  918  252.00000   96.17848  61.8%  1605  361s
    48    68   96.17848    6  741  252.00000   96.17848  61.8%  1445  451s
H   60    68                     252.0000000   96.17848  61.8%  1340  451s
H   80    93                     224.0000000   96.17848  57.1%  1275  604s
H   85    93                     215.0000000   96.17848  55.3%  1262  604s
H   95    93                     214.0000000   96.17848  55.1%  1206  604s
   112   121   96.17848    8  706  214.00000   96.17848  55.1%  1139  609s
   144   150   96.17848    9  668  214.00000   96.17848  55.1%   905  616s
   176   202   96.17848   10  645  214.00000   96.17848  55.1%   766  654s
   232   253   96.17848   11  715  214.00000   96.17848  55.1%   638  662s
   286   302   96.17848   12  710  214.00000   96.17848  55.1%   545  671s
   337   361   96.17848   12  748  214.00000   96.17848  55.1%   499  681s
   401   424   96.17848   13  730  214.00000   96.17848  55.1%   445  690s
   468   493   96.17848   14  760  214.00000   96.17848  55.1%   399  699s
   537   570   96.17848   15  739  214.00000   96.17848  55.1%   359  707s
   617   651   96.17848   16  765  214.00000   96.17848  55.1%   323  715s
   703   730   96.17848   17  735  214.00000   96.17848  55.1%   296  724s
   784   818   96.17848   18  756  214.00000   96.17848  55.1%   276  731s
   875   925   97.00000   19  873  214.00000   96.17848  55.1%   257  741s
   983  1042   97.00000   20  858  214.00000   96.17848  55.1%   236  750s
  1110  1082   97.00000   21  858  214.00000   96.17848  55.1%   213  762s
H 1129  1082                     213.0000000   96.17848  54.8%   210  762s
  1158  1197   97.00000   23  858  213.00000   96.17848  54.8%   207  771s
  1284  1313   97.00000   26  837  213.00000   96.17848  54.8%   192  779s
  1423  1487   99.00000   28  748  213.00000   96.17848  54.8%   178  786s
  1613  1717   99.00000   31  738  213.00000   96.17848  54.8%   161  795s
  1859  1954  100.00000   32  798  213.00000   96.17848  54.8%   146  812s
  2133  2070 infeasible   33       213.00000   96.17848  54.8%   132  826s
H 2262  2070                     212.0000000   96.17848  54.6%   130  826s
  2291  2210  106.00000   34  828  212.00000   96.17848  54.6%   130  840s
  2473  2343  106.00000   35  841  212.00000   96.17848  54.6%   129  880s
  2659  2505  106.00000   36  905  212.00000   96.17848  54.6%   131  891s
  2858  2780  106.00000   37  897  212.00000   96.17848  54.6%   127  900s
  3154  3019  106.00000   39  829  212.00000   96.17848  54.6%   120  912s
H 3447  3298                     211.0000000   96.17848  54.4%   115  925s
H 3471  3298                     210.0000000   96.17848  54.2%   115  925s
H 3637  3298                     208.0000000   96.17848  53.8%   111  926s
  3774  3618  106.00000   43  836  208.00000   96.17848  53.8%   109  937s
  4175  3938  107.00000   44  781  208.00000   96.17848  53.8%   102  961s
  4571  4165  107.00000   45  920  208.00000   96.17848  53.8%  98.7  981s
  4834  4410  107.00000   46  869  208.00000   96.17848  53.8%  98.9  998s
  5110  4715  110.00000   47  817  208.00000   96.17848  53.8%  97.6 1039s
  5495  4995 infeasible   46       208.00000   96.17848  53.8%  95.4 1070s
  5848  5356   98.00000    8  934  208.00000   96.17848  53.8%  95.2 1174s
  5928  5356   96.17848   19  992  208.00000   96.17848  53.8%  95.0 1175s
  6256  5736   98.00000   10  846  208.00000   96.17848  53.8%  95.4 1525s
  6404  5736  117.00000   49  558  208.00000   96.17848  53.8%  94.8 1533s
  6692  6246   98.00000   14  873  208.00000   96.17848  53.8%  96.5 2131s
  7251  6702   98.00000   17  895  208.00000   96.17848  53.8%  92.9 2460s
  7597  6702  154.00000  274  713  208.00000   96.17848  53.8%  90.6 2466s
  7848  6730  106.00000   24  707  208.00000   96.17848  53.8%  90.4 2901s
H 7853  6730                     204.0000000   96.17848  52.9%  90.6 3001s

Cutting planes:
  Learned: 17
  Gomory: 26
  Lift-and-project: 2
  Cover: 590
  Implied bound: 1564
  Clique: 51
  MIR: 2080
  StrongCG: 46
  Inf proof: 9
  Zero half: 5
  RLT: 1501
  Relax-and-lift: 407
  BQP: 1
  PSD: 3

Explored 7882 nodes (866302 simplex iterations) in 3659.60 seconds (116.99 work units)
Thread count was 32 (of 32 available processors)

Solution count 10: 204 208 210 ... 252

Time limit reached
Best objective 2.040000000000e+02, best bound 9.617847888983e+01, gap 52.8537%

Wrote result file 'RCPSP_1364.sol'

